NAME : in_house_7_14
TYPE : TSP
DIMENSION : 7
EDGE_WEIGHT_TYPE : EXPLICIT
EDGE_WEIGHT_FORMAT : UPPER_ROW
COMMENT : INVERSION_SHIFT=5
EDGE_WEIGHT_SECTION
15
5
27
24
43
46
47
8
28
38
33
17
24
24
17
35
34
33
14
9
39
